StudentsNr = 10;
InstructorsNr = 37;
DaysNr = 2;
SlotsPerDay = 15;
AvailabilitySlotsLenght = 3;
RoomNr = 2;
ProgrammNr = 1;
DegreeNr = 1;
RolesNr = 0;
CoursesNr = 7;
InstructorsProgramm = [{1}, {1}, {1}, {1}, {1}, {1}, {1}, {1}, {1}, {1}, {1}, {1}, {1}, {1}, {1}, {1}, {1}, {1}, {1}, {1}, {1}, {1}, {1}, {1}, {1}, {1}, {1}, {1}, {1}, {1}, {1}, {1}, {1}, {1}, {1}, {1}, {1}];
InstructorRolesPerProgramm = array2d(1..ProgrammNr,{},[]);
InstructorsAvailability = [|1, 0, 0, 1, 1, 1, 1, 1, 1, 1, |0, 0, 0, 1, 0, 0, 1, 1, 1, 1, |1, 1, 1, 1, 1, 1, 0, 0, 1, 0, |1, 1, 1, 1, 1, 1, 0, 1, 1, 1, |0, 1, 0, 0, 1, 1, 1, 1, 0, 0, |0, 1, 1, 1, 1, 1, 1, 1, 1, 1, |1, 1, 1, 1, 0, 1, 1, 1, 1, 1, |0, 1, 1, 1, 1, 1, 1, 1, 1, 1, |0, 0, 0, 1, 1, 1, 1, 1, 1, 0, |1, 1, 1, 1, 1, 1, 0, 0, 0, 1, |0, 1, 1, 0, 1, 1, 1, 1, 1, 1, |1, 1, 1, 1, 1, 1, 1, 0, 1, 1, |1, 1, 1, 1, 1, 1, 1, 1, 1, 1, |0, 1, 1, 1, 1, 1, 1, 1, 0, 1, |0, 0, 1, 1, 1, 1, 1, 1, 1, 1, |0, 1, 1, 1, 1, 1, 1, 0, 1, 1, |0, 1, 1, 1, 1, 1, 1, 1, 1, 1, |1, 1, 1, 1, 1, 1, 1, 1, 1, 1, |1, 1, 1, 1, 1, 1, 1, 1, 1, 1, |0, 0, 1, 1, 1, 1, 1, 1, 1, 1, |1, 1, 1, 1, 1, 1, 1, 1, 1, 1, |0, 0, 0, 1, 1, 1, 1, 1, 1, 0, |1, 1, 1, 0, 1, 1, 1, 1, 1, 1, |0, 1, 1, 1, 1, 1, 1, 1, 1, 0, |1, 1, 1, 1, 1, 0, 1, 1, 1, 0, |0, 1, 1, 1, 0, 1, 0, 0, 0, 0, |0, 0, 1, 1, 1, 1, 0, 0, 0, 1, |1, 1, 1, 1, 1, 0, 0, 0, 0, 0, |1, 1, 1, 1, 0, 0, 0, 1, 1, 1, |0, 0, 0, 0, 1, 1, 1, 1, 1, 1, |1, 1, 1, 1, 1, 0, 1, 1, 1, 1, |0, 1, 0, 1, 1, 1, 1, 1, 1, 1, |0, 1, 1, 1, 1, 0, 0, 0, 1, 1, |0, 1, 0, 0, 0, 1, 0, 0, 1, 1, |1, 1, 1, 1, 1, 1, 0, 1, 0, 0, |0, 1, 0, 0, 0, 0, 1, 1, 0, 0, |1, 1, 0, 0, 0, 0, 0, 0, 1, 1|];
StudentsProgramm = [1, 1, 1, 1, 1, 1, 1, 1, 1, 1];
StudentsDegree = [1, 1, 1, 1, 1, 1, 1, 1, 1, 1];
StudentsSupervisorId = [27, 9, 11, 7, 33, 23, 26, 7, 10, 21];
StudentsCourseIds = [{1, 2, 3, 4, 5, 6, 7}, {1, 2, 3, 4, 5, 6, 7}, {1, 2, 3, 4, 5, 6, 7}, {1, 2, 3, 4, 5, 6, 7}, {1, 2, 3, 4, 5, 6, 7}, {1, 2, 3, 4, 5, 6, 7}, {1, 2, 3, 4, 5, 6, 7}, {1, 2, 3, 4, 5, 6, 7}, {1, 2, 3, 4, 5, 6, 7}, {1, 2, 3, 4, 5, 6, 7}];
StudentsAvailability = [|0, 1, 1, 1, 1, 1, 1, 1, 1, 1, |0, 1, 1, 1, 1, 1, 1, 1, 1, 1, |1, 1, 1, 1, 1, 1, 1, 1, 1, 1, |0, 1, 1, 1, 1, 1, 1, 1, 1, 1, |1, 1, 1, 0, 0, 1, 1, 1, 1, 1, |1, 1, 1, 1, 1, 1, 1, 1, 1, 1, |1, 1, 1, 1, 1, 1, 1, 1, 1, 1, |1, 1, 0, 0, 0, 1, 0, 0, 1, 0, |0, 1, 1, 1, 1, 1, 0, 1, 1, 1, |1, 1, 1, 1, 1, 1, 1, 1, 1, 1|];
TheoryticalMinCard = [7, 7, 7, 7, 7, 7, 7, 7, 7, 7];
CoursesInstructorIds = [{1, 3, 4, 6, 8, 15, 19, 21, 25, 26, 28, 29, 30, 32, 33, 34, 35, 37}, {1, 6, 8, 11, 12, 14, 16, 17, 18, 20, 24, 27, 28, 31, 33, 35, 36}, {2, 8, 11, 13, 21, 31, 33}, {2, 3, 4, 11, 12, 14, 15, 16, 20, 23, 27, 29, 32, 34, 36}, {3, 4, 5, 6, 7, 8, 9, 10, 11, 12, 17, 18, 19, 21, 25, 28, 30, 31, 34, 35, 36}, {1, 3, 9, 11, 17, 21, 26, 30, 31, 37}, {2, 5, 7, 10, 11, 13, 14, 18, 19, 23, 24, 25, 28, 30, 32, 35, 36, 37}];
RolesDemands = [];
RolesContinuity = [];
ExamLen = [2, 2, 2, 2, 2, 2, 2, 2, 2, 2];
LunchTsMinLen = 2;
LunchStarts = [6..11, 20..25];
SupervisorAvailable = 0;
OptimalLunchLenght = [1, 3];
OptimalStartTs = [1, 0];
OptimalFinishTs = [0, 14];
MinimizeRooms = 400;
RolesSoftContinuity = array2d(1..2,{},[]);
SameDegreeInRoom = 0;
Mergeability = 2;
